p cnf 291 804
-15 1 0
-15 2 0
15 -1 -2 0
-16 3 0
-16 4 0
16 -3 -4 0
-17 15 0
-17 16 0
17 -15 -16 0
-18 2 0
-18 5 0
18 -2 -5 0
-19 1 0
-19 4 0
19 -1 -4 0
-20 18 0
-20 19 0
20 -18 -19 0
-21 -18 0
-21 -19 0
21 18 19 0
-22 -20 0
-22 -21 0
22 20 21 0
-23 17 0
-23 22 0
23 -17 -22 0
-24 -17 0
-24 -22 0
24 17 22 0
-25 -23 0
-25 -24 0
25 23 24 0
-26 3 0
-26 6 0
26 -3 -6 0
-27 25 0
-27 26 0
27 -25 -26 0
-28 -20 0
-28 -23 0
28 20 23 0
-29 2 0
-29 7 0
29 -2 -7 0
-30 4 0
-30 5 0
30 -4 -5 0
-31 29 0
-31 30 0
31 -29 -30 0
-32 -29 0
-32 -30 0
32 29 30 0
-33 -31 0
-33 -32 0
33 31 32 0
-34 -28 0
-34 33 0
34 28 -33 0
-35 28 0
-35 -33 0
35 -28 33 0
-36 -34 0
-36 -35 0
36 34 35 0
-37 1 0
-37 6 0
37 -1 -6 0
-38 36 0
-38 37 0
38 -36 -37 0
-39 -36 0
-39 -37 0
39 36 37 0
-40 -38 0
-40 -39 0
40 38 39 0
-41 27 0
-41 40 0
41 -27 -40 0
-42 -27 0
-42 -40 0
42 27 40 0
-43 -41 0
-43 -42 0
43 41 42 0
-44 3 0
-44 8 0
44 -3 -8 0
-45 43 0
-45 44 0
45 -43 -44 0
-46 -38 0
-46 -41 0
46 38 41 0
-47 -31 0
-47 -34 0
47 31 34 0
-48 2 0
-48 9 0
48 -2 -9 0
-49 4 0
-49 7 0
49 -4 -7 0
-50 48 0
-50 49 0
50 -48 -49 0
-51 -48 0
-51 -49 0
51 48 49 0
-52 -50 0
-52 -51 0
52 50 51 0
-53 -47 0
-53 52 0
53 47 -52 0
-54 47 0
-54 -52 0
54 -47 52 0
-55 -53 0
-55 -54 0
55 53 54 0
-56 5 0
-56 6 0
56 -5 -6 0
-57 55 0
-57 56 0
57 -55 -56 0
-58 -55 0
-58 -56 0
58 55 56 0
-59 -57 0
-59 -58 0
59 57 58 0
-60 -46 0
-60 59 0
60 46 -59 0
-61 46 0
-61 -59 0
61 -46 59 0
-62 -60 0
-62 -61 0
62 60 61 0
-63 1 0
-63 8 0
63 -1 -8 0
-64 62 0
-64 63 0
64 -62 -63 0
-65 -62 0
-65 -63 0
65 62 63 0
-66 -64 0
-66 -65 0
66 64 65 0
-67 45 0
-67 66 0
67 -45 -66 0
-68 -45 0
-68 -66 0
68 45 66 0
-69 -67 0
-69 -68 0
69 67 68 0
-70 3 0
-70 10 0
70 -3 -10 0
-71 69 0
-71 70 0
71 -69 -70 0
-72 -64 0
-72 -67 0
72 64 67 0
-73 -57 0
-73 -60 0
73 57 60 0
-74 -50 0
-74 -53 0
74 50 53 0
-75 2 0
-75 11 0
75 -2 -11 0
-76 4 0
-76 9 0
76 -4 -9 0
-77 75 0
-77 76 0
77 -75 -76 0
-78 -75 0
-78 -76 0
78 75 76 0
-79 -77 0
-79 -78 0
79 77 78 0
-80 -74 0
-80 79 0
80 74 -79 0
-81 74 0
-81 -79 0
81 -74 79 0
-82 -80 0
-82 -81 0
82 80 81 0
-83 6 0
-83 7 0
83 -6 -7 0
-84 82 0
-84 83 0
84 -82 -83 0
-85 -82 0
-85 -83 0
85 82 83 0
-86 -84 0
-86 -85 0
86 84 85 0
-87 -73 0
-87 86 0
87 73 -86 0
-88 73 0
-88 -86 0
88 -73 86 0
-89 -87 0
-89 -88 0
89 87 88 0
-90 5 0
-90 8 0
90 -5 -8 0
-91 89 0
-91 90 0
91 -89 -90 0
-92 -89 0
-92 -90 0
92 89 90 0
-93 -91 0
-93 -92 0
93 91 92 0
-94 -72 0
-94 93 0
94 72 -93 0
-95 72 0
-95 -93 0
95 -72 93 0
-96 -94 0
-96 -95 0
96 94 95 0
-97 1 0
-97 10 0
97 -1 -10 0
-98 96 0
-98 97 0
98 -96 -97 0
-99 -96 0
-99 -97 0
99 96 97 0
-100 -98 0
-100 -99 0
100 98 99 0
-101 71 0
-101 100 0
101 -71 -100 0
-102 -71 0
-102 -100 0
102 71 100 0
-103 -101 0
-103 -102 0
103 101 102 0
-104 3 0
-104 12 0
104 -3 -12 0
-105 103 0
-105 104 0
105 -103 -104 0
-106 -98 0
-106 -101 0
106 98 101 0
-107 -91 0
-107 -94 0
107 91 94 0
-108 -84 0
-108 -87 0
108 84 87 0
-109 -77 0
-109 -80 0
109 77 80 0
-110 2 0
-110 13 0
110 -2 -13 0
-111 4 0
-111 11 0
111 -4 -11 0
-112 110 0
-112 111 0
112 -110 -111 0
-113 -110 0
-113 -111 0
113 110 111 0
-114 -112 0
-114 -113 0
114 112 113 0
-115 -109 0
-115 114 0
115 109 -114 0
-116 109 0
-116 -114 0
116 -109 114 0
-117 -115 0
-117 -116 0
117 115 116 0
-118 6 0
-118 9 0
118 -6 -9 0
-119 117 0
-119 118 0
119 -117 -118 0
-120 -117 0
-120 -118 0
120 117 118 0
-121 -119 0
-121 -120 0
121 119 120 0
-122 -108 0
-122 121 0
122 108 -121 0
-123 108 0
-123 -121 0
123 -108 121 0
-124 -122 0
-124 -123 0
124 122 123 0
-125 7 0
-125 8 0
125 -7 -8 0
-126 124 0
-126 125 0
126 -124 -125 0
-127 -124 0
-127 -125 0
127 124 125 0
-128 -126 0
-128 -127 0
128 126 127 0
-129 -107 0
-129 128 0
129 107 -128 0
-130 107 0
-130 -128 0
130 -107 128 0
-131 -129 0
-131 -130 0
131 129 130 0
-132 5 0
-132 10 0
132 -5 -10 0
-133 131 0
-133 132 0
133 -131 -132 0
-134 -131 0
-134 -132 0
134 131 132 0
-135 -133 0
-135 -134 0
135 133 134 0
-136 -106 0
-136 135 0
136 106 -135 0
-137 106 0
-137 -135 0
137 -106 135 0
-138 -136 0
-138 -137 0
138 136 137 0
-139 1 0
-139 12 0
139 -1 -12 0
-140 138 0
-140 139 0
140 -138 -139 0
-141 -138 0
-141 -139 0
141 138 139 0
-142 -140 0
-142 -141 0
142 140 141 0
-143 105 0
-143 142 0
143 -105 -142 0
-144 -105 0
-144 -142 0
144 105 142 0
-145 -143 0
-145 -144 0
145 143 144 0
-146 3 0
-146 14 0
146 -3 -14 0
-147 145 0
-147 146 0
147 -145 -146 0
-148 -145 0
-148 -146 0
148 145 146 0
-149 -147 0
-149 -148 0
149 147 148 0
-150 19 0
-150 26 0
150 -19 -26 0
-151 -19 0
-151 -26 0
151 19 26 0
-152 -150 0
-152 -151 0
152 150 151 0
-153 17 0
-153 152 0
153 -17 -152 0
-154 -17 0
-154 -152 0
154 17 152 0
-155 -153 0
-155 -154 0
155 153 154 0
-156 18 0
-156 155 0
156 -18 -155 0
-157 -150 0
-157 -153 0
157 150 153 0
-158 37 0
-158 44 0
158 -37 -44 0
-159 -37 0
-159 -44 0
159 37 44 0
-160 -158 0
-160 -159 0
160 158 159 0
-161 -157 0
-161 160 0
161 157 -160 0
-162 157 0
-162 -160 0
162 -157 160 0
-163 -161 0
-163 -162 0
163 161 162 0
-164 30 0
-164 163 0
164 -30 -163 0
-165 -30 0
-165 -163 0
165 30 163 0
-166 -164 0
-166 -165 0
166 164 165 0
-167 156 0
-167 166 0
167 -156 -166 0
-168 -156 0
-168 -166 0
168 156 166 0
-169 -167 0
-169 -168 0
169 167 168 0
-170 29 0
-170 169 0
170 -29 -169 0
-171 -164 0
-171 -167 0
171 164 167 0
-172 -158 0
-172 -161 0
172 158 161 0
-173 63 0
-173 70 0
173 -63 -70 0
-174 -63 0
-174 -70 0
174 63 70 0
-175 -173 0
-175 -174 0
175 173 174 0
-176 -172 0
-176 175 0
176 172 -175 0
-177 172 0
-177 -175 0
177 -172 175 0
-178 -176 0
-178 -177 0
178 176 177 0
-179 56 0
-179 178 0
179 -56 -178 0
-180 -56 0
-180 -178 0
180 56 178 0
-181 -179 0
-181 -180 0
181 179 180 0
-182 -171 0
-182 181 0
182 171 -181 0
-183 171 0
-183 -181 0
183 -171 181 0
-184 -182 0
-184 -183 0
184 182 183 0
-185 49 0
-185 184 0
185 -49 -184 0
-186 -49 0
-186 -184 0
186 49 184 0
-187 -185 0
-187 -186 0
187 185 186 0
-188 170 0
-188 187 0
188 -170 -187 0
-189 -170 0
-189 -187 0
189 170 187 0
-190 -188 0
-190 -189 0
190 188 189 0
-191 48 0
-191 190 0
191 -48 -190 0
-192 -185 0
-192 -188 0
192 185 188 0
-193 -179 0
-193 -182 0
193 179 182 0
-194 -173 0
-194 -176 0
194 173 176 0
-195 97 0
-195 104 0
195 -97 -104 0
-196 -97 0
-196 -104 0
196 97 104 0
-197 -195 0
-197 -196 0
197 195 196 0
-198 -194 0
-198 197 0
198 194 -197 0
-199 194 0
-199 -197 0
199 -194 197 0
-200 -198 0
-200 -199 0
200 198 199 0
-201 90 0
-201 200 0
201 -90 -200 0
-202 -90 0
-202 -200 0
202 90 200 0
-203 -201 0
-203 -202 0
203 201 202 0
-204 -193 0
-204 203 0
204 193 -203 0
-205 193 0
-205 -203 0
205 -193 203 0
-206 -204 0
-206 -205 0
206 204 205 0
-207 83 0
-207 206 0
207 -83 -206 0
-208 -83 0
-208 -206 0
208 83 206 0
-209 -207 0
-209 -208 0
209 207 208 0
-210 -192 0
-210 209 0
210 192 -209 0
-211 192 0
-211 -209 0
211 -192 209 0
-212 -210 0
-212 -211 0
212 210 211 0
-213 76 0
-213 212 0
213 -76 -212 0
-214 -76 0
-214 -212 0
214 76 212 0
-215 -213 0
-215 -214 0
215 213 214 0
-216 191 0
-216 215 0
216 -191 -215 0
-217 -191 0
-217 -215 0
217 191 215 0
-218 -216 0
-218 -217 0
218 216 217 0
-219 75 0
-219 218 0
219 -75 -218 0
-220 -213 0
-220 -216 0
220 213 216 0
-221 -207 0
-221 -210 0
221 207 210 0
-222 -201 0
-222 -204 0
222 201 204 0
-223 -195 0
-223 -198 0
223 195 198 0
-224 139 0
-224 146 0
224 -139 -146 0
-225 -139 0
-225 -146 0
225 139 146 0
-226 -224 0
-226 -225 0
226 224 225 0
-227 -223 0
-227 226 0
227 223 -226 0
-228 223 0
-228 -226 0
228 -223 226 0
-229 -227 0
-229 -228 0
229 227 228 0
-230 132 0
-230 229 0
230 -132 -229 0
-231 -132 0
-231 -229 0
231 132 229 0
-232 -230 0
-232 -231 0
232 230 231 0
-233 -222 0
-233 232 0
233 222 -232 0
-234 222 0
-234 -232 0
234 -222 232 0
-235 -233 0
-235 -234 0
235 233 234 0
-236 125 0
-236 235 0
236 -125 -235 0
-237 -125 0
-237 -235 0
237 125 235 0
-238 -236 0
-238 -237 0
238 236 237 0
-239 -221 0
-239 238 0
239 221 -238 0
-240 221 0
-240 -238 0
240 -221 238 0
-241 -239 0
-241 -240 0
241 239 240 0
-242 118 0
-242 241 0
242 -118 -241 0
-243 -118 0
-243 -241 0
243 118 241 0
-244 -242 0
-244 -243 0
244 242 243 0
-245 -220 0
-245 244 0
245 220 -244 0
-246 220 0
-246 -244 0
246 -220 244 0
-247 -245 0
-247 -246 0
247 245 246 0
-248 111 0
-248 247 0
248 -111 -247 0
-249 -111 0
-249 -247 0
249 111 247 0
-250 -248 0
-250 -249 0
250 248 249 0
-251 219 0
-251 250 0
251 -219 -250 0
-252 -219 0
-252 -250 0
252 219 250 0
-253 -251 0
-253 -252 0
253 251 252 0
-254 110 0
-254 253 0
254 -110 -253 0
-255 -110 0
-255 -253 0
255 110 253 0
-256 -254 0
-256 -255 0
256 254 255 0
-257 149 0
-257 -256 0
-258 -149 0
-258 256 0
259 257 258 0
-260 -103 0
-260 -104 0
260 103 104 0
-261 -105 0
-261 -260 0
261 105 260 0
-262 -75 0
-262 -218 0
262 75 218 0
-263 -219 0
-263 -262 0
263 219 262 0
-264 261 0
-264 -263 0
-265 -261 0
-265 263 0
266 264 265 0
267 -259 -266 0
-268 -69 0
-268 -70 0
268 69 70 0
-269 -71 0
-269 -268 0
269 71 268 0
-270 -48 0
-270 -190 0
270 48 190 0
-271 -191 0
-271 -270 0
271 191 270 0
-272 269 0
-272 -271 0
-273 -269 0
-273 271 0
274 272 273 0
275 -267 -274 0
-276 -43 0
-276 -44 0
276 43 44 0
-277 -45 0
-277 -276 0
277 45 276 0
-278 -29 0
-278 -169 0
278 29 169 0
-279 -170 0
-279 -278 0
279 170 278 0
-280 277 0
-280 -279 0
-281 -277 0
-281 279 0
282 280 281 0
283 -275 -282 0
-284 -25 0
-284 -26 0
284 25 26 0
-285 -27 0
-285 -284 0
285 27 284 0
-286 -18 0
-286 -155 0
286 18 155 0
-287 -156 0
-287 -286 0
287 156 286 0
-288 285 0
-288 -287 0
-289 -285 0
-289 287 0
290 288 289 0
291 -283 -290 0
-291 0
